50
3477 949
91 1732
3972 329
198 1632
1806 733
538 1023
3430 1088
2186 766
1513 1646
2143 1611
53 1657
3404 1307
1034 1344
2823 376
3104 1931
3232 324
2790 1457
374 9
741 146
3083 1938
3502 1067
1280 237
3326 1846
217 38
2503 1172
3527 41
739 1850
3548 1999
48 154
1419 872
1689 1223
3468 1404
1628 253
382 872
3029 1242
3646 1758
285 1029
1782 93
1067 371
2849 1214
920 1835
1741 712
876 220
2753 283
2609 1286
3941 258
3613 523
1754 559
2916 1724
2445 1820
15911